(declare-const a Real)
(declare-const b Real)
(declare-const c Real)
(assert (<= (+ (pow a 2) (pow b 2) (pow c 2) (* a b) (* a c) (* b c)) 2))
(assert (> a 0))
(assert (> b 0))
(assert (> c 0))
(assert (not (<= (+ 6 (* (pow (* (pow (* 3 (pow (* 2 b c) (pow 3 -1))) (pow (+ b c) -2)) (pow (+ 2 (* 2 a b)) (pow (+ a b) -2)) (pow (+ a c) -2) (+ 2 (* 2 a c))) (pow (+ 1 (pow (+ a b) -2) (pow (+ b c) -2)) -1)) (+ -1 (* -1 (pow (+ a b) -2)) (* -1 (pow (+ b c) -2))))) 0)))
(check-sat)
(get-model)
(exit)